<number of tasks>
20

<cycle time>
1000

<order strength>
0,3


<task times>
1 634
2 517
3 521
4 404
5 614
6 579
7 411
8 397
9 448
10 428
11 200
12 503
13 498
14 570
15 742
16 619
17 765
18 378
19 615
20 485

<precedence relations>
1,7
2,7
3,7
4,7
5,8
5,9
5,10
5,11
7,12
7,13
7,14
7,15
11,16
15,17
17,18
17,19
17,20

<end>
